Version identifier: 22.1.1.0 | 2022-11-28 | 9160aff4d
CPXPARAM_TimeLimit                               1.999985933303833
Found incumbent of value 95136.359981 after 0.00 sec. (0.54 ticks)
Tried aggregator 1 time.
Reduced MIP has 100 rows, 4950 columns, and 9900 nonzeros.
Reduced MIP has 4950 binaries, 0 generals, 0 SOSs, and 0 indicators.
Presolve time = 0.00 sec. (3.84 ticks)
Tried aggregator 1 time.
Detecting symmetries...
Reduced MIP has 100 rows, 4950 columns, and 9900 nonzeros.
Reduced MIP has 4950 binaries, 0 generals, 0 SOSs, and 0 indicators.
Presolve time = 0.00 sec. (4.71 ticks)
Probing time = 0.00 sec. (0.77 ticks)
MIP emphasis: balance optimality and feasibility.
MIP search method: dynamic search.
Parallel mode: deterministic, using up to 8 threads.
Root relaxation solution time = 0.01 sec. (2.97 ticks)

        Nodes                                         Cuts/
   Node  Left     Objective  IInf  Best Integer    Best Bound    ItCnt     Gap

*     0+    0                        95136.3600        0.0000           100.00%
      0     0    78169.7785    12    95136.3600    78169.7785      131   17.83%
      0     0    78680.5802     8    95136.3600       Cuts: 9      148   17.30%
      0     0    78774.8948     6    95136.3600       Cuts: 3      153   17.20%
      0     0    78850.5680     6    95136.3600       Cuts: 3      155   17.12%
*     0+    0                        78876.0221    78850.5680             0.03%
      0     0        cutoff          78876.0221    78876.0221      157    0.00%
Elapsed time = 0.13 sec. (118.23 ticks, tree = 0.01 MB, solutions = 2)

Cover cuts applied:  4
Zero-half cuts applied:  9
Gomory fractional cuts applied:  3

Root node processing (before b&c):
  Real time             =    0.13 sec. (118.42 ticks)
Parallel b&c, 8 threads:
  Real time             =    0.00 sec. (0.00 ticks)
  Sync time (average)   =    0.00 sec.
  Wait time (average)   =    0.00 sec.
                          ------------
Total (root+branch&cut) =    0.13 sec. (118.42 ticks)
Version identifier: 22.1.1.0 | 2022-11-28 | 9160aff4d
CPXPARAM_TimeLimit                               1.8656229972839355
Warning:  No solution found from 2 MIP starts.
Retaining values of one MIP start for possible repair.
Tried aggregator 1 time.
Reduced MIP has 111 rows, 4950 columns, and 11797 nonzeros.
Reduced MIP has 4950 binaries, 0 generals, 0 SOSs, and 0 indicators.
Presolve time = 0.00 sec. (4.20 ticks)
Found incumbent of value 551213.912248 after 0.01 sec. (14.05 ticks)
Tried aggregator 1 time.
Detecting symmetries...
Reduced MIP has 111 rows, 4950 columns, and 11797 nonzeros.
Reduced MIP has 4950 binaries, 0 generals, 0 SOSs, and 0 indicators.
Presolve time = 0.00 sec. (5.15 ticks)
Probing time = 0.00 sec. (0.33 ticks)
MIP emphasis: balance optimality and feasibility.
MIP search method: dynamic search.
Parallel mode: deterministic, using up to 8 threads.
Root relaxation solution time = 0.01 sec. (4.04 ticks)

        Nodes                                         Cuts/
   Node  Left     Objective  IInf  Best Integer    Best Bound    ItCnt     Gap

*     0+    0                       551213.9122        0.0000           100.00%
*     0+    0                       528296.8259        0.0000           100.00%
*     0+    0                       522563.4778        0.0000           100.00%
      0     0    82071.4193     6   522563.4778    82071.4193      177   84.29%
      0     0    82343.0689     8   522563.4778       Cuts: 5      188   84.24%
      0     0    82411.4555     6   522563.4778       Cuts: 3      194   84.23%
*     0+    0                        82537.4460    82411.4555             0.15%
      0     0    82430.3003    32    82537.4460       Cuts: 3      196    0.13%
      0     0        cutoff          82537.4460                    196    0.00%
Elapsed time = 0.10 sec. (104.48 ticks, tree = 0.01 MB, solutions = 4)

Cover cuts applied:  3
Zero-half cuts applied:  6
Gomory fractional cuts applied:  2

Root node processing (before b&c):
  Real time             =    0.10 sec. (104.72 ticks)
Parallel b&c, 8 threads:
  Real time             =    0.00 sec. (0.00 ticks)
  Sync time (average)   =    0.00 sec.
  Wait time (average)   =    0.00 sec.
                          ------------
Total (root+branch&cut) =    0.10 sec. (104.72 ticks)
Version identifier: 22.1.1.0 | 2022-11-28 | 9160aff4d
CPXPARAM_TimeLimit                               1.7617378234863281
3 of 4 MIP starts provided solutions.
MIP start 'm3' defined initial solution with objective 522563.4778.
Retaining values of one MIP start for possible repair.
Tried aggregator 1 time.
Reduced MIP has 118 rows, 4950 columns, and 13397 nonzeros.
Reduced MIP has 4950 binaries, 0 generals, 0 SOSs, and 0 indicators.
Presolve time = 0.00 sec. (4.52 ticks)
Tried aggregator 1 time.
Detecting symmetries...
Reduced MIP has 118 rows, 4950 columns, and 13397 nonzeros.
Reduced MIP has 4950 binaries, 0 generals, 0 SOSs, and 0 indicators.
Presolve time = 0.00 sec. (5.53 ticks)
Probing time = 0.00 sec. (0.35 ticks)
MIP emphasis: balance optimality and feasibility.
MIP search method: dynamic search.
Parallel mode: deterministic, using up to 8 threads.
Root relaxation solution time = 0.01 sec. (4.33 ticks)

        Nodes                                         Cuts/
   Node  Left     Objective  IInf  Best Integer    Best Bound    ItCnt     Gap

*     0+    0                       522563.4778        0.0000           100.00%
*     0+    0                       512786.9242        0.0000           100.00%
*     0+    0                       505025.8292        0.0000           100.00%
      0     0    82325.9403    25   505025.8292    82325.9403      174   83.70%
      0     0    82764.8993    10   505025.8292      Cuts: 13      193   83.61%
*     0+    0                        82816.8200    82764.8993             0.06%
      0     0        cutoff          82816.8200    82816.8200      195    0.00%
Elapsed time = 0.09 sec. (97.48 ticks, tree = 0.01 MB, solutions = 6)

Cover cuts applied:  3
Zero-half cuts applied:  8
Gomory fractional cuts applied:  4

Root node processing (before b&c):
  Real time             =    0.09 sec. (97.81 ticks)
Parallel b&c, 8 threads:
  Real time             =    0.00 sec. (0.00 ticks)
  Sync time (average)   =    0.00 sec.
  Wait time (average)   =    0.00 sec.
                          ------------
Total (root+branch&cut) =    0.09 sec. (97.81 ticks)
Version identifier: 22.1.1.0 | 2022-11-28 | 9160aff4d
CPXPARAM_TimeLimit                               1.6688699722290039
5 of 6 MIP starts provided solutions.
MIP start 'm5' defined initial solution with objective 505025.8292.
Retaining values of one MIP start for possible repair.
Tried aggregator 1 time.
Reduced MIP has 128 rows, 4950 columns, and 15191 nonzeros.
Reduced MIP has 4950 binaries, 0 generals, 0 SOSs, and 0 indicators.
Presolve time = 0.00 sec. (4.87 ticks)
Tried aggregator 1 time.
Detecting symmetries...
Reduced MIP has 128 rows, 4950 columns, and 15191 nonzeros.
Reduced MIP has 4950 binaries, 0 generals, 0 SOSs, and 0 indicators.
Presolve time = 0.00 sec. (5.97 ticks)
Probing time = 0.00 sec. (0.38 ticks)
MIP emphasis: balance optimality and feasibility.
MIP search method: dynamic search.
Parallel mode: deterministic, using up to 8 threads.
Root relaxation solution time = 0.01 sec. (5.05 ticks)

        Nodes                                         Cuts/
   Node  Left     Objective  IInf  Best Integer    Best Bound    ItCnt     Gap

*     0+    0                       505025.8292        0.0000           100.00%
*     0+    0                       495671.4758        0.0000           100.00%
*     0+    0                       486556.6062        0.0000           100.00%
      0     0    83086.0505    35   486556.6062    83086.0505      184   82.92%
      0     0    83222.1773    44   486556.6062      Cuts: 14      197   82.90%
*     0+    0                        83246.1910    83222.1773             0.03%
      0     0        cutoff          83246.1910    83246.1910      201    0.00%
Elapsed time = 0.10 sec. (127.12 ticks, tree = 0.01 MB, solutions = 8)

Cover cuts applied:  2
Zero-half cuts applied:  12
Gomory fractional cuts applied:  6

Root node processing (before b&c):
  Real time             =    0.10 sec. (127.54 ticks)
Parallel b&c, 8 threads:
  Real time             =    0.00 sec. (0.00 ticks)
  Sync time (average)   =    0.00 sec.
  Wait time (average)   =    0.00 sec.
                          ------------
Total (root+branch&cut) =    0.10 sec. (127.54 ticks)
Version identifier: 22.1.1.0 | 2022-11-28 | 9160aff4d
CPXPARAM_TimeLimit                               1.5663399696350098
7 of 8 MIP starts provided solutions.
MIP start 'm7' defined initial solution with objective 486556.6062.
Retaining values of one MIP start for possible repair.
Tried aggregator 1 time.
Reduced MIP has 130 rows, 4950 columns, and 18541 nonzeros.
Reduced MIP has 4950 binaries, 0 generals, 0 SOSs, and 0 indicators.
Presolve time = 0.00 sec. (5.55 ticks)
Tried aggregator 1 time.
Detecting symmetries...
Reduced MIP has 130 rows, 4950 columns, and 18541 nonzeros.
Reduced MIP has 4950 binaries, 0 generals, 0 SOSs, and 0 indicators.
Presolve time = 0.01 sec. (6.81 ticks)
Probing time = 0.00 sec. (0.44 ticks)
MIP emphasis: balance optimality and feasibility.
MIP search method: dynamic search.
Parallel mode: deterministic, using up to 8 threads.
Root relaxation solution time = 0.01 sec. (4.72 ticks)

        Nodes                                         Cuts/
   Node  Left     Objective  IInf  Best Integer    Best Bound    ItCnt     Gap

*     0+    0                       486556.6062        0.0000           100.00%
*     0+    0                       479230.2210        0.0000           100.00%
*     0+    0                       473008.8975        0.0000           100.00%
      0     0    83086.0505    35   473008.8975    83086.0505      177   82.43%
      0     0    83235.5186    39   473008.8975      Cuts: 14      189   82.40%
*     0+    0                        83266.3058    83235.5186             0.04%
      0     0        cutoff          83266.3058    83266.3058      190    0.00%
Elapsed time = 0.11 sec. (141.69 ticks, tree = 0.01 MB, solutions = 10)

Cover cuts applied:  4
Zero-half cuts applied:  6
Gomory fractional cuts applied:  4

Root node processing (before b&c):
  Real time             =    0.11 sec. (142.20 ticks)
Parallel b&c, 8 threads:
  Real time             =    0.00 sec. (0.00 ticks)
  Sync time (average)   =    0.00 sec.
  Wait time (average)   =    0.00 sec.
                          ------------
Total (root+branch&cut) =    0.11 sec. (142.20 ticks)
Version identifier: 22.1.1.0 | 2022-11-28 | 9160aff4d
CPXPARAM_TimeLimit                               1.4557850360870361
9 of 10 MIP starts provided solutions.
MIP start 'm9' defined initial solution with objective 473008.8975.
Retaining values of one MIP start for possible repair.
Tried aggregator 1 time.
Reduced MIP has 132 rows, 4950 columns, and 21832 nonzeros.
Reduced MIP has 4950 binaries, 0 generals, 0 SOSs, and 0 indicators.
Presolve time = 0.01 sec. (6.37 ticks)
Tried aggregator 1 time.
Detecting symmetries...
Reduced MIP has 132 rows, 4950 columns, and 21832 nonzeros.
Reduced MIP has 4950 binaries, 0 generals, 0 SOSs, and 0 indicators.
Presolve time = 0.01 sec. (7.78 ticks)
Probing time = 0.00 sec. (0.49 ticks)
MIP emphasis: balance optimality and feasibility.
MIP search method: dynamic search.
Parallel mode: deterministic, using up to 8 threads.
Root relaxation solution time = 0.01 sec. (5.18 ticks)

        Nodes                                         Cuts/
   Node  Left     Objective  IInf  Best Integer    Best Bound    ItCnt     Gap

*     0+    0                       473008.8975        0.0000           100.00%
*     0+    0                       464435.9269        0.0000           100.00%
*     0+    0                       457660.4520        0.0000           100.00%
      0     0    83086.0505    35   457660.4520    83086.0505      181   81.85%
      0     0    83225.2544    51   457660.4520      Cuts: 14      195   81.82%
*     0+    0                        83294.5551    83225.2544             0.08%
      0     0        cutoff          83294.5551    83294.5551      203    0.00%
Elapsed time = 0.11 sec. (145.32 ticks, tree = 0.01 MB, solutions = 12)

Cover cuts applied:  2
Zero-half cuts applied:  15
Gomory fractional cuts applied:  6

Root node processing (before b&c):
  Real time             =    0.11 sec. (145.91 ticks)
Parallel b&c, 8 threads:
  Real time             =    0.00 sec. (0.00 ticks)
  Sync time (average)   =    0.00 sec.
  Wait time (average)   =    0.00 sec.
                          ------------
Total (root+branch&cut) =    0.11 sec. (145.91 ticks)
Version identifier: 22.1.1.0 | 2022-11-28 | 9160aff4d
CPXPARAM_TimeLimit                               1.3423910140991211
11 of 12 MIP starts provided solutions.
MIP start 'm11' defined initial solution with objective 457660.4520.
Retaining values of one MIP start for possible repair.
Tried aggregator 1 time.
Reduced MIP has 134 rows, 4950 columns, and 25803 nonzeros.
Reduced MIP has 4950 binaries, 0 generals, 0 SOSs, and 0 indicators.
Presolve time = 0.01 sec. (7.39 ticks)
Tried aggregator 1 time.
Detecting symmetries...
Reduced MIP has 134 rows, 4950 columns, and 25803 nonzeros.
Reduced MIP has 4950 binaries, 0 generals, 0 SOSs, and 0 indicators.
Presolve time = 0.01 sec. (8.99 ticks)
Probing time = 0.00 sec. (0.55 ticks)
MIP emphasis: balance optimality and feasibility.
MIP search method: dynamic search.
Parallel mode: deterministic, using up to 8 threads.
Root relaxation solution time = 0.01 sec. (5.69 ticks)

        Nodes                                         Cuts/
   Node  Left     Objective  IInf  Best Integer    Best Bound    ItCnt     Gap

*     0+    0                       457660.4520        0.0000           100.00%
*     0+    0                       449651.0409        0.0000           100.00%
*     0+    0                       440453.2438        0.0000           100.00%
      0     0    83086.0505    35   440453.2438    83086.0505      180   81.14%
*     0+    0                        83307.6143    83086.0505             0.27%
      0     0        cutoff          83307.6143    83307.6143      192    0.00%
Elapsed time = 0.09 sec. (104.37 ticks, tree = 0.01 MB, solutions = 14)

Cover cuts applied:  1
Zero-half cuts applied:  9
Gomory fractional cuts applied:  4

Root node processing (before b&c):
  Real time             =    0.09 sec. (105.05 ticks)
Parallel b&c, 8 threads:
  Real time             =    0.00 sec. (0.00 ticks)
  Sync time (average)   =    0.00 sec.
  Wait time (average)   =    0.00 sec.
                          ------------
Total (root+branch&cut) =    0.09 sec. (105.05 ticks)
Version identifier: 22.1.1.0 | 2022-11-28 | 9160aff4d
CPXPARAM_TimeLimit                               1.2523999214172363
13 of 14 MIP starts provided solutions.
MIP start 'm13' defined initial solution with objective 440453.2438.
Retaining values of one MIP start for possible repair.
Tried aggregator 1 time.
Reduced MIP has 137 rows, 4950 columns, and 28328 nonzeros.
Reduced MIP has 4950 binaries, 0 generals, 0 SOSs, and 0 indicators.
Presolve time = 0.01 sec. (8.07 ticks)
Tried aggregator 1 time.
Detecting symmetries...
Reduced MIP has 137 rows, 4950 columns, and 28328 nonzeros.
Reduced MIP has 4950 binaries, 0 generals, 0 SOSs, and 0 indicators.
Presolve time = 0.01 sec. (9.79 ticks)
Probing time = 0.00 sec. (0.60 ticks)
MIP emphasis: balance optimality and feasibility.
MIP search method: dynamic search.
Parallel mode: deterministic, using up to 8 threads.
Root relaxation solution time = 0.01 sec. (6.55 ticks)

        Nodes                                         Cuts/
   Node  Left     Objective  IInf  Best Integer    Best Bound    ItCnt     Gap

*     0+    0                       440453.2438        0.0000           100.00%
*     0+    0                       432766.8176        0.0000           100.00%
      0     0    83151.3528    47   432766.8176    83151.3528      193   80.79%
*     0+    0                        83356.5110    83151.3528             0.25%
      0     0        cutoff          83356.5110    83356.5110      206    0.00%
Elapsed time = 0.08 sec. (107.97 ticks, tree = 0.01 MB, solutions = 15)

Cover cuts applied:  1
Zero-half cuts applied:  13
Gomory fractional cuts applied:  5

Root node processing (before b&c):
  Real time             =    0.08 sec. (108.69 ticks)
Parallel b&c, 8 threads:
  Real time             =    0.00 sec. (0.00 ticks)
  Sync time (average)   =    0.00 sec.
  Wait time (average)   =    0.00 sec.
                          ------------
Total (root+branch&cut) =    0.08 sec. (108.69 ticks)
Version identifier: 22.1.1.0 | 2022-11-28 | 9160aff4d
CPXPARAM_TimeLimit                               1.167510986328125
14 of 15 MIP starts provided solutions.
MIP start 'm14' defined initial solution with objective 432766.8176.
Retaining values of one MIP start for possible repair.
Tried aggregator 1 time.
Reduced MIP has 141 rows, 4950 columns, and 30701 nonzeros.
Reduced MIP has 4950 binaries, 0 generals, 0 SOSs, and 0 indicators.
Presolve time = 0.01 sec. (8.63 ticks)
Tried aggregator 1 time.
Detecting symmetries...
Reduced MIP has 141 rows, 4950 columns, and 30701 nonzeros.
Reduced MIP has 4950 binaries, 0 generals, 0 SOSs, and 0 indicators.
Presolve time = 0.01 sec. (10.46 ticks)
Probing time = 0.00 sec. (0.63 ticks)
MIP emphasis: balance optimality and feasibility.
MIP search method: dynamic search.
Parallel mode: deterministic, using up to 8 threads.
Root relaxation solution time = 0.01 sec. (6.59 ticks)

        Nodes                                         Cuts/
   Node  Left     Objective  IInf  Best Integer    Best Bound    ItCnt     Gap

*     0+    0                       432766.8176        0.0000           100.00%
*     0+    0                       426282.3864        0.0000           100.00%
      0     0    83183.2512    46   426282.3864    83183.2512      187   80.49%
*     0+    0                        83432.8517    83183.2512             0.30%
      0     0        cutoff          83432.8517    83432.8517      200    0.00%
Elapsed time = 0.10 sec. (128.12 ticks, tree = 0.01 MB, solutions = 16)

Cover cuts applied:  2
Zero-half cuts applied:  11
Gomory fractional cuts applied:  5

Root node processing (before b&c):
  Real time             =    0.10 sec. (128.89 ticks)
Parallel b&c, 8 threads:
  Real time             =    0.00 sec. (0.00 ticks)
  Sync time (average)   =    0.00 sec.
  Wait time (average)   =    0.00 sec.
                          ------------
Total (root+branch&cut) =    0.10 sec. (128.89 ticks)
